width,height
25,10
1,5
5,7
4,1
3,10
3,3
2,8
2,8
2,10
1,1
2,2
3,7
4,4
2,2
1,6
4,6
2,6
5,4
1,4
3,8
1,9
5,10
1,8
3,2
5,8
4,7
4,2
3,9
1,1
2,4
3,10
2,2
3,3
5,7
4,9
2,1
2,2
1,9
5,10
4,3
4,3
4,7
2,10
2,8
4,6
2,9
4,1
5,2
4,9
3,6
4,8
5,10
1,5
2,10
2,3
4,9
3,9
4,2
3,6
2,7
3,8
5,7
1,2
1,4
4,4
3,4
2,3
1,4
3,5
5,4
5,7
2,6
5,4
3,9
4,8
3,6
2,4
5,9
4,4
4,3
4,10
1,3
2,4
4,7
3,4
2,9
2,3
1,7
4,2
2,4
4,6
4,3
2,10
4,8
4,6
1,2
4,7
1,9
4,3
1,9
1,2
